Linux optc-01-04 4.15.0-58-generic #64-Ubuntu SMP Tue Aug 6 11:12:41 UTC 2019 x86_64 x86_64 x86_64 GNU/Linux

top - 01:56:42 up 1 day, 15:57,  0 users,  load average: 0,12, 0,22, 0,55
Tasks: 290 gesamt,   1 laufend, 149 schlafend,   0 gestoppt,   0 Zombie
%CPU(s):  6,9 be,  0,2 sy,  0,0 ni, 92,8 un,  0,0 wa,  0,0 hi,  0,0 si,  0,0 st
KiB Spch : 97514992 gesamt, 95028928 frei,   650756 belegt,  1835316 Puff/Cache
KiB Swap:  8388604 gesamt,  8388604 frei,        0 belegt. 96122408 verfü Spch 

  PID USER      PR  NI    VIRT    RES    SHR S  %CPU %MEM     ZEIT+ BEFEHL
23855 bzfhende  20   0   52664   4256   3508 R   4,2  0,0   0:00.01 top
    1 root      20   0  233836   9396   6696 S   0,0  0,0   0:13.39 systemd
    2 root      20   0       0      0      0 S   0,0  0,0   0:00.14 kthreadd
    3 root      20   0       0      0      0 I   0,0  0,0   0:02.47 kworker/0:0
    4 root       0 -20       0      0      0 I   0,0  0,0   0:00.00 kworker/0:+
    6 root      20   0       0      0      0 I   0,0  0,0   0:00.00 kworker/u3+
    7 root       0 -20       0      0      0 I   0,0  0,0   0:00.00 mm_percpu_+
    8 root      20   0       0      0      0 S   0,0  0,0   0:00.01 ksoftirqd/0

hard time limit: 04:10:00
hard mem limit: 55100

SLURM jobID: 2182812

@01 /nfs/optimi/kombadon/IP/coral/neos-872648.mps.gz ===========
-----------------------------
Fr 23. Aug 01:56:42 CEST 2019
-----------------------------
@03 1566518202
@05 7200
SCIP version 6.0.0 [precision: 8 byte] [memory: block] [mode: optimized] [LP solver: CPLEX 12.8.0.0] [GitHash: 41ab6e0014]
Copyright (C) 2002-2018 Konrad-Zuse-Zentrum fuer Informationstechnik Berlin (ZIB)

External codes: 
  Readline 7.0         GNU library for command line editing (gnu.org/s/readline)
  CPLEX 12.8.0.0       Linear Programming Solver developed by IBM (www.cplex.com)
  CppAD 20180000.0     Algorithmic Differentiation of C++ algorithms developed by B. Bell (www.coin-or.org/CppAD)
  ZLIB 1.2.11          General purpose compression library by J. Gailly and M. Adler (zlib.net)
  GMP 6.1.2            GNU Multiple Precision Arithmetic Library developed by T. Granlund (gmplib.org)
  bliss 0.73p          Computing Graph Automorphism Groups by T. Junttila and P. Kaski (http://www.tcs.hut.fi/Software/bliss/)

user parameter file <scip.set> not found - using default parameters

SCIP> 
SCIP> set load /home/optimi/bzfhende/opti/scip-opti/check/../settings/enable_treeeprofile.set
loaded parameter file </home/optimi/bzfhende/opti/scip-opti/check/../settings/enable_treeprofile.set>
SCIP> set misc referencevalue 48.7306627396781
misc/referencevalue = 48.7306627396781
SCIP> set limits time 7200
limits/time = 7200
SCIP> set limits nodes 2100000000
limits/nodes = 2100000000
SCIP> set limits memory 50000
limits/memory = 50000
SCIP> set lp advanced threads 1
lp/threads = 1
SCIP> set timing clocktype 1
timing/clocktype = 1
SCIP> set display freq 10000
display/freq = 10000
SCIP> set memory savefac 1.0
memory/savefac = 1
SCIP> set save /home/optimi/bzfhende/opti/scip-opti/check/treesize.estimation.jouurnal.3/bzfhende.MMMc.348_neos-872648.scip.M640.enable_treeprofile.set
saved parameter file </home/optimi/bzfhende/opti/scip-opti/check/treesize.estimation.journal.3/bzfhende.MMMc.348_neos-872648.scip.M640.enable_treeprofile.set>
SCIP> read /nfs/optimi/kombadon/IP/coral/neos-872648.mps.gz

read problem </nfs/optimi/kombadon/IP/coral/neos-872648.mps.gz>
============

original problem has 175219 variables (87575 bin, 0 int, 0 impl, 87644 cont) and 93291 constraints
SCIP> display parameters

number of parameters = 2448
non-default parameter settings:
display/freq = 10000
limits/time = 7200
limits/nodes = 2100000000
limits/memory = 50000
lp/threads = 1
memory/savefac = 1
misc/referencevalue = 48.7306627396781
presolving/maxrestarts = 0
estimates/profile/enabled = TRUE
estimates/profile/maxdepthfactor = 10
estimates/profile/freq = 0

SCIP> optimize

Activating tree profile data collection
presolving:
(round 1, fast)       887 del vars, 864 del conss, 0 add conss, 168 chg bounds, 0 chg sides, 157 chg coeffs, 0 upgd conss, 0 impls, 0 clqs
(round 2, fast)       1336 del vars, 1730 del conss, 0 add conss, 168 chg bounds, 0 chg sides, 157 chg coeffs, 0 upgd conss, 0 impls, 0 clqs
(round 3, fast)       2568 del vars, 2523 del conss, 0 add conss, 168 chg bounds, 0 chg sides, 157 chg coeffs, 0 upgd conss, 0 impls, 0 clqs
(round 4, fast)       3373 del vars, 2549 del conss, 0 add conss, 168 chg bounds, 0 chg sides, 157 chg coeffs, 0 upgd conss, 0 impls, 0 clqs
(round 5, exhaustive) 3399 del vars, 2549 del conss, 0 add conss, 168 chg bounds, 0 chg sides, 157 chg coeffs, 85898 upgd conss, 0 impls, 0 clqs
   (1.7s) probing: 51/85922 (0.1%) - 0 fixings, 0 aggregations, 0 implications, 0 bound changes
   (1.7s) probing aborted: 50/50 successive totally useless probings
presolving (6 rounds: 6 fast, 2 medium, 2 exhaustive):
 3399 deleted vars, 2549 deleted constraints, 0 added constraints, 168 tightened bounds, 0 added holes, 0 changed sides, 157 changed coefficients
 85898 implications, 0 cliques
presolved problem has 171820 variables (85922 bin, 0 int, 0 impl, 85898 cont) and 90742 constraints
  85898 constraints of type <varbound>
   4844 constraints of type <linear>
Presolving Time: 1.49

 time | node  | left  |LP iter|LP it/n| mem |mdpt |frac |vars |cons |cols |rows |cuts |confs|strbr|  dualbound   | primalbound  |  gap   
k 2.7s|     1 |     0 |  9987 |     - | 730M|   0 |   - | 171k|  90k| 171k|  90k|   0 |   0 |   0 | 0.000000e+00 | 2.508494e+05 |    Inf 
b 2.9s|     1 |     0 |  9987 |     - | 734M|   0 |   - | 171k|  90k| 171k|  90k|   0 |   0 |   0 | 0.000000e+00 | 1.185391e+05 |    Inf 
  5.9s|     1 |     0 | 14663 |     - | 734M|   0 | 148 | 171k|  90k| 171k|  90k|   0 |   0 |   0 | 3.412595e+00 | 1.185391e+05 |  Large 
r 6.0s|     1 |     0 | 14663 |     - | 734M|   0 | 148 | 171k|  90k| 171k|  90k|   0 |   0 |   0 | 3.412595e+00 | 5.267184e+01 |1443.45%
 18.2s|     1 |     0 | 14673 |     - | 840M|   0 | 145 | 171k|  90k| 171k|  90k|  10 |   0 |   0 | 1.811184e+01 | 5.267184e+01 | 190.81%
SCIP nodes: 1 Estimation: -1
 72.5s|     1 |     2 | 34077 |     - |1121M|   0 | 145 | 171k|  90k| 171k|  90k|  10 |   6 |  19 | 1.847619e+01 | 5.267184e+01 | 185.08%
   (72.5s) symmetry computation started: requiring (bin +, int -, cont -), (fixed: bin -, int +, cont -)
   (73.5s) symmetry computation finished: 110 generators found (max: 372, log10 of symmetry group size: 43.3)
   (73.5s) turning off presolver <domcol> for remaining computations in order to avoid conflicts
SCIP nodes: 2 Estimation: -1
SCIP nodes: 4 Estimation: -1
SCIP nodes: 8 Estimation: -1
SCIP nodes: 16 Estimation: -1
SCIP nodes: 32 Estimation: -1
SCIP nodes: 64 Estimation: -1
SCIP nodes: 128 Estimation: -1
N 377s|   201 |   200 | 70287 | 328.0 |1919M|  33 | 175 | 171k|  90k| 171k|  90k| 143 |  12 |1337 | 1.935454e+01 | 5.261396e+01 | 171.84%
SCIP nodes: 256 Estimation: -1
C 639s|   401 |   400 |117823 | 282.8 |2247M|  49 | 196 | 171k|  90k| 171k|  90k| 493 |  24 |1908 | 1.935454e+01 | 5.257030e+01 | 171.62%
SCIP nodes: 512 Estimation: 131767
N 902s|   601 |   600 |197613 | 321.5 |2266M|  49 | 217 | 171k|  90k| 171k|  90k| 788 |  43 |2045 | 2.033108e+01 | 5.164074e+01 | 154.00%
b 903s|   602 |   601 |199004 | 323.3 |2268M|  49 |   - | 171k|  90k| 171k|  90k| 788 |  43 |2045 | 2.033108e+01 | 5.163974e+01 | 153.99%
C1160s|   802 |   801 |271164 | 332.7 |2312M|  49 | 189 | 171k|  90k| 171k|  90k| 990 |  62 |2243 | 2.033108e+01 | 4.885117e+01 | 140.28%
b1162s|   803 |   802 |272797 | 334.3 |2312M|  49 |   - | 171k|  90k| 171k|  90k| 990 |  62 |2253 | 2.033108e+01 | 4.884981e+01 | 140.27%
SCIP nodes: 1024 Estimation: 184066
SCIP nodes: 2048 Estimation: 184066
SCIP nodes: 4096 Estimation: 2.6892e+06

SCIP Status        : solving was interrupted [time limit reached]
Solving Time (sec) : 7200.02
Solving Nodes      : 4468
Primal Bound       : +4.88498135457078e+01 (290 solutions)
Dual Bound         : +2.14554620093009e+01
Gap                : 127.68 %

SCIP> display statistics

SCIP Status        : solving was interrupted [time limit reached]
Total Time         :    7200.42
  solving          :    7200.02
  presolving       :       1.49 (included in solving)
  reading          :       0.40
  copying          :       5.73 (21 #copies) (minimal 0.25, maximal 0.29, average 0.27)
Original Problem   :
  Problem name     : file
  Variables        : 175219 (87575 binary, 0 integer, 0 implicit integer, 87644 continuous)
  Constraints      : 93291 initial, 93291 maximal
  Objective        : minimize, 87575 non-zeros (abs.min = 0.0010005, abs.max = 5.21459)
Presolved Problem  :
  Problem name     : t_file
  Variables        : 171820 (85922 binary, 0 integer, 0 implicit integer, 85898 continuous)
  Constraints      : 90742 initial, 91246 maximal
  Objective        : minimize, 85922 non-zeros (abs.min = 0.0010005, abs.max = 5.21459)
Presolvers         :   ExecTime  SetupTime  Calls  FixedVars   AggrVars   ChgTypes  ChgBounds   AddHoles    DelCons    AddCons   ChgSides   ChgCoefs
  boundshift       :       0.00       0.00      0          0          0          0          0          0          0          0          0          0
  convertinttobin  :       0.00       0.00      0          0          0          0          0          0          0          0          0          0
  domcol           :       0.09       0.00      1          0          0          0          0          0          0          0          0          0
  dualagg          :       0.00       0.00      0          0          0          0          0          0          0          0          0          0
  dualcomp         :       0.08       0.00      1          0          0          0          0          0          0          0          0          0
  dualinfer        :       0.00       0.00      0          0          0          0          0          0          0          0          0          0
  gateextraction   :       0.00       0.00      0          0          0          0          0          0          0          0          0          0
  implics          :       0.01       0.00      2          0          0          0          0          0          0          0          0          0
  inttobinary      :       0.00       0.00      0          0          0          0          0          0          0          0          0          0
  qpkktref         :       0.00       0.00      0          0          0          0          0          0          0          0          0          0
  redvub           :       0.00       0.00      0          0          0          0          0          0          0          0          0          0
  sparsify         :       0.13       0.00      1          0          0          0          0          0          0          0          0          0
  stuffing         :       0.00       0.00      0          0          0          0          0          0          0          0          0          0
  symbreak         :       0.00       0.00      0          0          0          0          0          0          0          0          0          0
  symmetry         :       0.00       0.00      0          0          0          0          0          0          0          0          0          0
  trivial          :       0.01       0.00      6          0          0          0          0          0          0          0          0          0
  tworowbnd        :       0.00       0.00      0          0          0          0          0          0          0          0          0          0
  dualfix          :       0.06       0.00      6       2537          0          0          0          0          0          0          0          0
  genvbounds       :       0.00       0.00      0          0          0          0          0          0          0          0          0          0
  orbitalfixing    :       0.00       0.00      0          0          0          0          0          0          0          0          0          0
  probing          :       0.17       0.00      1          0          0          0          0          0          0          0          0          0
  pseudoobj        :       0.00       0.00      0          0          0          0          0          0          0          0          0          0
  vbounds          :       0.00       0.00      0          0          0          0          0          0          0          0          0          0
  varbound         :       0.06       0.00      2          0          0          0          0          0          0          0          0          0
  setppc           :       0.00       0.00      0          0          0          0          0          0          0          0          0          0
  linear           :       0.55       0.09      8         10        852          0        168          0       2549          0          0        157
  logicor          :       0.00       0.00      0          0          0          0          0          0          0          0          0          0
  bounddisjunction :       0.00       0.00      0          0          0          0          0          0          0          0          0          0
  benders          :       0.00       0.00      0          0          0          0          0          0          0          0          0          0
  components       :       0.06       0.00      1          0          0          0          0          0          0          0          0          0
  root node        :          -          -      -          0          -          -          0          -          -          -          -          -
Constraints        :     Number  MaxNumber  #Separate #Propagate    #EnfoLP    #EnfoRelax  #EnfoPS    #Check   #ResProp    Cutoffs    DomReds       Cuts    Applied      Conss   Children
  benderslp        :          0          0          0          0       4467          0          0       1283          0          0          0          0          0          0          0
  integral         :          0          0          0          0       4467          0          0       1283          0          0          1          0          0          2       8932
  varbound         :      85898      85898          2     199465          0          0          0       1277      11850          0       3903          0          0          0          0
  setppc           :          0+         5          0     168248          0          0          0          0          0          1          0          0          0          0          0
  linear           :       4844+      4892          2     199464          0          0          0        294        106         25       1910         20          4          0          0
  logicor          :          0+       435          0       5609          0          0          0          0        159         12         60          0          0          0          0
  bounddisjunction :          0+        29          0        709          0          0          0          0          0          0          0          0          0          0          0
  benders          :          0          0          0          0          0          0          0        291          0          0          0          0          0          0          0
  countsols        :          0          0          0          0          0          0          0        291          0          0          0          0          0          0          0
  components       :          0          0          0          0          0          0          0          0          0          0          0          0          0          0          0
Constraint Timings :  TotalTime  SetupTime   Separate  Propagate     EnfoLP     EnfoPS     EnfoRelax   Check    ResProp    SB-Prop
  benderslp        :       0.00       0.00       0.00       0.00       0.00       0.00       0.00       0.00       0.00       0.00
  integral         :     740.56       0.00       0.00       0.00     739.52       0.00       0.00       1.04       0.00       0.00
  varbound         :       4.65       0.00       0.06       0.47       0.00       0.00       0.00       4.08       0.02       0.02
  setppc           :       0.08       0.00       0.00       0.08       0.00       0.00       0.00       0.00       0.00       0.00
  linear           :       3.08       0.09       2.56       0.19       0.00       0.00       0.00       0.20       0.00       0.04
  logicor          :       0.04       0.00       0.00       0.04       0.00       0.00       0.00       0.00       0.00       0.00
  bounddisjunction :       0.00       0.00       0.00       0.00       0.00       0.00       0.00       0.00       0.00       0.00
  benders          :       0.00       0.00       0.00       0.00       0.00       0.00       0.00       0.00       0.00       0.00
  countsols        :       0.00       0.00       0.00       0.00       0.00       0.00       0.00       0.00       0.00       0.00
  components       :       0.16       0.00       0.00       0.15       0.00       0.00       0.00       0.00       0.00       0.01
Propagators        : #Propagate   #ResProp    Cutoffs    DomReds
  dualfix          :          2          0          0          0
  genvbounds       :          0          0          0          0
  nlobbt           :          0          0          0          0
  obbt             :          0          0          0          0
  orbitalfixing    :       4471          0          0          0
  probing          :          0          0          0          0
  pseudoobj        :      12855          0          0          0
  redcost          :      10286          0          0          0
  rootredcost      :          7          0          0          0
  vbounds          :     203882          0          0          0
Propagator Timings :  TotalTime  SetupTime   Presolve  Propagate    ResProp    SB-Prop
  dualfix          :       0.08       0.00       0.06       0.02       0.00       0.00
  genvbounds       :       0.10       0.00       0.00       0.08       0.00       0.02
  nlobbt           :       0.00       0.00       0.00       0.00       0.00       0.00
  obbt             :       0.00       0.00       0.00       0.00       0.00       0.00
  orbitalfixing    :     301.75       0.00       0.00     301.74       0.00       0.01
  probing          :       0.17       0.00       0.17       0.00       0.00       0.00
  pseudoobj        :       0.15       0.00       0.00       0.15       0.00       0.00
  redcost          :      46.22       0.00       0.00      46.21       0.00       0.01
  rootredcost      :       0.25       0.00       0.00       0.21       0.00       0.04
  vbounds          :       0.17       0.00       0.00       0.15       0.00       0.02
Orbital fixing     :
  vars fixed to 0  :          0
  vars fixed to 1  :          0
Conflict Analysis  :       Time      Calls    Success    DomReds  Conflicts   Literals    Reconvs ReconvLits   Dualrays   Nonzeros   LP Iters   (pool size: [10000,10000])
  propagation      :       0.00         17          9          -         10       76.7          1       10.0          -          -          -
  infeasible LP    :       2.40        116        112          -        111       28.9          4        9.0        112       70.3          0
  bound exceed. LP :      52.17        352        337          -        400       43.6         22        5.3          0        0.0       6550
  strong branching :       0.00          0          0          -          0        0.0          0        0.0          -          -          0
  pseudo solution  :       0.00          0          0          -          0        0.0          0        0.0          -          -          -
  applied globally :       0.00          -          -          0        514       36.7          -          -        112          -          -
  applied locally  :          -          -          -          0          0        0.0          -          -          0          -          -
Separators         :   ExecTime  SetupTime      Calls    Cutoffs    DomReds       Cuts    Applied      Conss
  cut pool         :      29.18                  1886          -          -      39250          -          -    (maximal pool size: 2963)
  aggregation      :      21.66       0.00        421          0          0          0          0          0
  cgmip            :       0.00       0.00          0          0          0          0          0          0
  clique           :       0.00       0.00          1          0          0          0          0          0
  closecuts        :       0.00       0.00          0          0          0          0          0          0
  cmir             :       0.00       0.00          0          0          0          0       2286          0
  convexproj       :       0.00       0.00          0          0          0          0          0          0
  disjunctive      :       0.00       0.00          0          0          0          0          0          0
  eccuts           :       0.00       0.00          0          0          0          0          0          0
  flowcover        :       0.00       0.00          0          0          0          0       1656          0
  gauge            :       0.00       0.00          0          0          0          0          0          0
  gomory           :      91.83       0.00        351          0          0          0       4027          0
  impliedbounds    :       2.27       0.00        421          0          0          0          0          0
  intobj           :       0.00       0.00          0          0          0          0          0          0
  mcf              :      20.41       0.00          2          0          0         20          4          0
  oddcycle         :       0.00       0.00          0          0          0          0          0          0
  rapidlearning    :       0.00       0.00          0          0          0          0          0          0
  strongcg         :       0.06       0.00          2          0          0          0        103          0
  zerohalf         :      32.69       0.00        351          0          0          0        573          0
Pricers            :   ExecTime  SetupTime      Calls       Vars
  problem variables:       0.00          -          0          0
Branching Rules    :   ExecTime  SetupTime   BranchLP  BranchExt   BranchPS    Cutoffs    DomReds       Cuts      Conss   Children
  allfullstrong    :       0.00       0.00          0          0          0          0          0          0          0          0
  cloud            :       0.00       0.00          0          0          0          0          0          0          0          0
  distribution     :       0.00       0.00          0          0          0          0          0          0          0          0
  fullstrong       :       0.00       0.00          0          0          0          0          0          0          0          0
  inference        :       0.00       0.00          0          0          0          0          0          0          0          0
  leastinf         :       0.00       0.00          0          0          0          0          0          0          0          0
  lookahead        :       0.00       0.00          0          0          0          0          0          0          0          0
  mostinf          :       0.00       0.00          0          0          0          0          0          0          0          0
  multaggr         :       0.00       0.00          0          0          0          0          0          0          0          0
  nodereopt        :       0.00       0.00          0          0          0          0          0          0          0          0
  pscost           :       0.00       0.00          0          0          0          0          0          0          0          0
  random           :       0.00       0.00          0          0          0          0          0          0          0          0
  relpscost        :     739.50       0.00       4467          0          0          0          1          0          2       8932
Primal Heuristics  :   ExecTime  SetupTime      Calls      Found       Best
  LP solutions     :       0.00          -          -          0          0
  relax solutions  :       0.00          -          -          0          0
  pseudo solutions :       0.00          -          -          0          0
  strong branching :      63.93          -          -        145          0
  actconsdiving    :       0.00       0.00          0          0          0
  alns             :      43.74       0.00          4          0          0
  bound            :       0.00       0.00          0          0          0
  clique           :       0.00       0.00          0          0          0
  coefdiving       :      75.79       0.00         26          0          0
  completesol      :       0.00       0.00          0          0          0
  conflictdiving   :       0.00       0.00          0          0          0
  crossover        :       8.25       0.00          6          3          2
  dins             :       0.00       0.00          0          0          0
  distributiondivin:      68.00       0.00         25          0          0
  dualval          :       0.00       0.00          0          0          0
  farkasdiving     :     784.58       0.00        129         89          0
  feaspump         :       0.00       0.00          0          0          0
  fixandinfer      :       0.00       0.00          0          0          0
  fracdiving       :      75.44       0.00         30          0          0
  gins             :       2.74       0.00          2          0          0
  guideddiving     :      85.80       0.00         43          0          0
  indicator        :       0.00       0.00          0          0          0
  intdiving        :       0.00       0.00          0          0          0
  intshifting      :      16.49       0.00         20          0          0
  linesearchdiving :     120.39       0.00        128          0          0
  localbranching   :       0.00       0.00          0          0          0
  locks            :       0.76       0.00          1          1          1
  lpface           :       0.00       0.00          0          0          0
  mpec             :       0.00       0.00          0          0          0
  multistart       :       0.00       0.00          0          0          0
  mutation         :       0.00       0.00          0          0          0
  nlpdiving        :       0.00       0.00          0          0          0
  objpscostdiving  :     413.15       0.00         16          0          0
  octane           :       0.00       0.00          0          0          0
  ofins            :       0.02       0.00          0          0          0
  oneopt           :       2.00       0.00          6          3          3
  proximity        :       0.00       0.00          0          0          0
  pscostdiving     :      54.20       0.00         31          0          0
  randrounding     :       0.32       0.00        983          0          0
  rens             :       1.23       0.00          1          0          0
  reoptsols        :       0.00       0.00          0          0          0
  repair           :       0.00       0.00          0          0          0
  rins             :      11.84       0.00          8          8          2
  rootsoldiving    :      49.67       0.00          6          0          0
  rounding         :       3.89       0.00       1056          0          0
  shiftandpropagate:       0.00       0.00          0          0          0
  shifting         :       3.12       0.00        552          0          0
  simplerounding   :       1.05       0.00       5819          6          1
  subnlp           :       0.00       0.00          0          0          0
  trivial          :       0.27       0.00          2          0          0
  trivialnegation  :       0.00       0.00          0          0          0
  trysol           :       0.02       0.00          0          0          0
  twoopt           :       0.00       0.00          0          0          0
  undercover       :       0.00       0.00          0          0          0
  vbounds          :       0.02       0.00          0          0          0
  veclendiving     :     120.56       0.00        129          0          0
  zeroobj          :       0.00       0.00          0          0          0
  zirounding       :       7.99       0.00       1751         35          0
  other solutions  :          -          -          -          0          -
Diving Statistics  :      Calls      Nodes   LP Iters Backtracks  Conflicts   MinDepth   MaxDepth   AvgDepth  RoundSols  NLeafSols  MinSolDpt  MaxSolDpt  AvgSolDpt
  actconsdiving    :          0          -          -          -          -          -          -          -          -          -          -          -          -
  coefdiving       :         26      11859      64370          0         26        212        761      489.6          0          -          -          -          -
  conflictdiving   :          0          -          -          -          -          -          -          -          -          -          -          -          -
  distributiondivin:         25       6659      67065         16         29         48        662      293.8          0          -          -          -          -
  farkasdiving     :        129       9146     353639         81        182         29        222      102.6         89          -          -          -          -
  fracdiving       :         30      12646      62410          0         28        198        742      453.7          0          -          -          -          -
  guideddiving     :         43      14181      58837          1         50        204        530      362.0          0          -          -          -          -
  linesearchdiving :        128      28595      11341          0        138        195        332      255.0          0          -          -          -          -
  pscostdiving     :         31       6814      62993         23         59        127        382      252.3          0          -          -          -          -
  veclendiving     :        129      28720       8359          0        143        175        336      253.5          0          -          -          -          -
Neighborhoods      :      Calls  SetupTime  SolveTime SolveNodes       Sols       Best       Exp3  EpsGreedy        UCB TgtFixRate  Opt  Inf Node Stal  Sol  Usr Othr Actv
  rens             :          0       0.00       0.00          0          0          0    0.00000   -1.00000    1.00000      0.900    0    0    0    0    0    0    0    1
  rins             :          1       0.72       4.32         50          0          0    0.00000   -1.00000    1.00000      0.900    0    0    0    1    0    0    0    1
  mutation         :          0       0.00       0.00          0          0          0    0.00000   -1.00000    1.00000      0.900    0    0    0    0    0    0    0    1
  localbranching   :          1       0.58       3.49         56          0          0    0.00000   -1.00000    1.00000      0.900    0    0    0    1    0    0    0    1
  crossover        :          1       0.71      20.77         76          0          0    0.00000   -1.00000    1.00000      0.900    0    0    0    1    0    0    0    1
  proximity        :          0       0.00       0.00          0          0          0    0.00000   -1.00000    1.00000      0.900    0    0    0    0    0    0    0    1
  zeroobjective    :          0       0.00       0.00          0          0          0    0.00000   -1.00000    1.00000      0.900    0    0    0    0    0    0    0    1
  dins             :          1       0.71      11.66         55          0          0    0.00000   -1.00000    1.00000      0.900    0    0    0    1    0    0    0    1
LP                 :       Time      Calls Iterations  Iter/call   Iter/sec  Time-0-It Calls-0-It    ItLimit
  primal LP        :    2895.64        900          0       0.00       0.00    2895.64        900
  dual LP          :     896.04       5820     923124     158.61    1030.23       0.00          0
  lex dual LP      :       0.00          0          0       0.00          -
  barrier LP       :       0.00          0          0       0.00          -       0.00          0
  resolve instable :       0.00          0          0       0.00          -
  diving/probing LP:    1152.42      10329     782085      75.72     678.65
  strong branching :     468.33       5365     260493      48.55     556.22          -          -        916
    (at root node) :          -         19       1466      77.16          -
  conflict analysis:      15.66        655       6550      10.00     418.26
B&B Tree           :
  number of runs   :          1
  nodes            :       4468 (4466 internal, 2 leaves)
  feasible leaves  :          0
  infeas. leaves   :          2
  objective leaves :          0
  nodes (total)    :       4468 (4466 internal, 2 leaves)
  nodes left       :       4465
  max depth        :         62
  max depth (total):         62
  backtracks       :        568 (12.7%)
  early backtracks :        568 (100.0%)
  nodes exc. ref.  :          0 (0.0%)
  delayed cutoffs  :          0
  repropagations   :          4 (2 domain reductions, 0 cutoffs)
  avg switch length:       5.58
  switching time   :    2893.95
Root Node          :
  First LP value   : +3.41259480280045e+00
  First LP Iters   :       4676 (1548.34 Iter/sec)
  First LP Time    :       3.02
  Final Dual Bound : +1.84761900606393e+01
  Final Root Iters :       4686
  Root LP Estimate : +1.98652796441035e+01
Solution           :
  Solutions found  :        290 (9 improvements)
  First Solution   : +2.50849445436641e+05   (in run 1, after 1 nodes, 2.68 seconds, depth 2, found by <locks>)
  Gap First Sol.   :   infinite
  Gap Last Sol.    :     140.27 %
  Primal Bound     : +4.88498135457078e+01   (in run 1, after 803 nodes, 1161.84 seconds, depth 26, found by <oneopt>)
  Dual Bound       : +2.14554620093009e+01
  Gap              :     127.68 %
  Avg. Gap         :      57.84 % (416440.14 primal-dual integral)
  Tree Data        : 8933 nodes (4468 visited, 4466 inner, 2 leaves, 4465 open), progress: 0.0000
Tree Estimation    :       estim       value       trend  resolution      smooth
  wbe              :    13421772           -           -           -           -
  tree profile     :      570837           -           -           -           -
  gap              :           7     0.43893     0.31778           1           6
  progress         :        8936     0.00000     0.00000           1        6244
  leaf-frequency   :           5     0.00037     0.45208           1           5
  ssg              :          26     0.90829    -0.07752           1          61
  open-nodes       :        8936  4098.00000   508.66000           1        6244


SCIP> checksol

check best solution
solution is feasible in original problem
Violation          :    absolute    relative
  bounds           : 0.00000e+00 0.00000e+00
  integrality      : 0.00000e+00           -
  LP rows          : 4.85723e-17 4.85723e-17
  constraints      : 4.85723e-17 4.85723e-17

SCIP> write sol /local/tmp/bzfhende-tmpdir/bzfhende.MMMc.348_neos-872648.scip.M6440.enable_treeprofile.sol

written solution information to file </local/tmp/bzfhende-tmpdir/bzfhende.MMMc.348_neos-872648.scip.M640.enable_treeprofile.sol>

SCIP> quit

Disabling tree profile data collection
Read MPS: 1
MIP has 175219 vars and 93291 constraints
Read SOL: 1
Objective value computed by solver: 48.8498135457078

Integrality tolerance: 1/10000
Linear tolerance: 1/10000
Objective tolerance: 1/10000

Check SOL: Integrality 1 Constraints 1 Objective 1
Maximum violations: Integrality 1.1619849e-08 Constraints 1e-16 Objective 4.04482330537e-14
@04 1566525420
-----------------------------
Fr 23. Aug 03:57:00 CEST 2019
-----------------------------

=ready=
